*SENSE:Maximize
NAME          MODEL
ROWS
 N  OBJ
 L  C0000000
 L  C0000001
COLUMNS
    MARK      'MARKER'                 'INTORG'
    X0000000  C0000001   1.000000000000e+00
    X0000000  C0000000   1.000000000000e+00
    X0000000  OBJ        1.000000000000e+00
    MARK      'MARKER'                 'INTEND'
RHS
    RHS       C0000000   5.000000000000e+00
    RHS       C0000001   4.000000000000e+00
BOUNDS
 LO BND       X0000000   0.000000000000e+00
ENDATA
